RT is False
Default write of storage_offers_DA.csv just to have a file (but constraint should be inactive)
Reading model...
...model read.
creating competitive generators file...
...competitive generators recorded.
Loading data...
.. day-ahead data with real-time VRE data read.
Compiling instance...
...instance created.
Creating Offer Mitigation (model will solve as dispatch if TRUE)...
...storage offer mitigation file created
Converting model to MPEC...
...converted
NOTE: initial MIP solve with only storage competitive to get feasible solution
Solving...

Welcome to IBM(R) ILOG(R) CPLEX(R) Interactive Optimizer 12.9.0.0
  with Simplex, Mixed Integer & Barrier Optimizers
5725-A06 5725-A29 5724-Y48 5724-Y49 5724-Y54 5724-Y55 5655-Y21
Copyright IBM Corp. 1988, 2019.  All Rights Reserved.

Type 'help' for a list of available commands.
Type 'help' followed by a command name for more
information on commands.

CPLEX> Logfile 'cplex.log' closed.
Logfile 'C:\Users\llavin\Desktop\test826\logs\tmp1c5q2o1x.cplex.log' open.
CPLEX> New value for parallel optimization mode: -1
CPLEX> New value for mixed integer optimality gap tolerance: 0.01
CPLEX> New value for integrality tolerance: 1e-09
CPLEX> New value for feasibility tolerance: 0.001
CPLEX> New value for deterministic time limit in ticks: 75000
CPLEX> Problem 'C:\Users\llavin\Desktop\test826\logs\tmpb_3k5ktc.pyomo.lp' read.
Read time = 0.23 sec. (14.73 ticks)
CPLEX> Problem name         : C:\Users\llavin\Desktop\test826\logs\tmpb_3k5ktc.pyomo.lp
Objective sense      : Maximize
Variables            :   53805  [Nneg: 1,  Box: 22000,  Free: 4464,
                                 Binary: 27340]
Objective nonzeros   :    9029
Linear constraints   :  123205  [Less: 41346,  Greater: 59096,  Equal: 22763]
  Nonzeros           :  291753
  RHS nonzeros       :   67491

Variables            : Min LB: -5000.000        Max UB: 1000000.       
Objective nonzeros   : Min   : 0.1083333        Max   : 2500.000       
Linear constraints   :
  Nonzeros           : Min   : 0.1083333        Max   : 1000000.       
  RHS nonzeros       : Min   : 0.1083333        Max   : 1000000.       
CPLEX> CPXPARAM_Parallel                                -1
CPXPARAM_Simplex_Tolerances_Feasibility          0.001
CPXPARAM_DetTimeLimit                            75000
CPXPARAM_MIP_Tolerances_MIPGap                   0.01
CPXPARAM_MIP_Tolerances_Integrality              1.0000000000000001e-09
Tried aggregator 3 times.
MIP Presolve eliminated 88621 rows and 18945 columns.
MIP Presolve added 3379 rows and 0 columns.
MIP Presolve modified 24872 coefficients.
Aggregator did 12989 substitutions.
Reduced MIP has 24974 rows, 21315 columns, and 71218 nonzeros.
Reduced MIP has 8427 binaries, 0 generals, 0 SOSs, and 0 indicators.
Presolve time = 0.28 sec. (172.42 ticks)
Probing fixed 395 vars, tightened 2820 bounds.
Probing time = 1.19 sec. (876.94 ticks)
Tried aggregator 2 times.
MIP Presolve eliminated 897 rows and 797 columns.
MIP Presolve modified 2213 coefficients.
Aggregator did 40 substitutions.
Reduced MIP has 24037 rows, 20478 columns, and 68492 nonzeros.
Reduced MIP has 8030 binaries, 0 generals, 0 SOSs, and 0 indicators.
Presolve time = 0.09 sec. (70.66 ticks)
Probing time = 0.03 sec. (16.01 ticks)
Clique table members: 6531.
MIP emphasis: balance optimality and feasibility.
MIP search method: dynamic search.
Parallel mode: opportunistic, using up to 32 threads.
Root relaxation solution time = 0.47 sec. (555.26 ticks)

        Nodes                                         Cuts/
   Node  Left     Objective  IInf  Best Integer    Best Bound    ItCnt     Gap

      0     0     2933.5521   644                   2933.5521     6815         
      0     0     2933.5808     2                    Fract: 1     6817         
*     0+    0                         2909.7500     2933.5521             0.82%

Gomory fractional cuts applied:  1

Root node processing (before b&c):
  Real time             =    5.86 sec. (3855.65 ticks)
Parallel b&c, 32 threads:
  Real time             =    0.00 sec. (0.00 ticks)
  Sync time (average)   =    0.00 sec.
  Wait time (average)   =    0.00 sec.
                          ------------
Total (root+branch&cut) =    5.86 sec. (3855.65 ticks)

Solution pool: 1 solution saved.

MIP - Integer optimal, tolerance (0.01/1e-06):  Objective =  2.9097500246e+03
Current MIP best bound =  2.9221063467e+03 (gap = 12.3563, 0.42%)
Solution time =    5.88 sec.  Iterations = 6817  Nodes = 0 (1)
Deterministic time = 3855.80 ticks  (656.31 ticks/sec)

CPLEX> Incumbent solution written to file 'C:\Users\llavin\Desktop\test826\logs\tmp63hpt991.cplex.sol'.
CPLEX> NOTE: no warmstart specified for MIP iteration, default behavior is true
NOTE: resolving with all competitive generators using storage-only solution to warmstart
Solving...

Welcome to IBM(R) ILOG(R) CPLEX(R) Interactive Optimizer 12.9.0.0
  with Simplex, Mixed Integer & Barrier Optimizers
5725-A06 5725-A29 5724-Y48 5724-Y49 5724-Y54 5724-Y55 5655-Y21
Copyright IBM Corp. 1988, 2019.  All Rights Reserved.

Type 'help' for a list of available commands.
Type 'help' followed by a command name for more
information on commands.

CPLEX> Logfile 'cplex.log' closed.
Logfile 'C:\Users\llavin\Desktop\test826\logs\tmp1_xn2dxi.cplex.log' open.
CPLEX> New value for parallel optimization mode: -1
CPLEX> New value for mixed integer optimality gap tolerance: 0.01
CPLEX> New value for integrality tolerance: 1e-09
CPLEX> New value for feasibility tolerance: 0.001
CPLEX> New value for deterministic time limit in ticks: 75000
CPLEX> Problem 'C:\Users\llavin\Desktop\test826\logs\tmp40w5qvfm.pyomo.lp' read.
Read time = 0.24 sec. (14.75 ticks)
CPLEX> MIP start file 'C:\Users\llavin\Desktop\test826\logs\tmpavd5b1lr.cplex.mst' read.
CPLEX> Problem name         : C:\Users\llavin\Desktop\test826\logs\tmp40w5qvfm.pyomo.lp
Objective sense      : Maximize
Variables            :   54525  [Nneg: 1,  Box: 22720,  Free: 4464,
                                 Binary: 27340]
Objective nonzeros   :    9749
Linear constraints   :  123205  [Less: 41346,  Greater: 59096,  Equal: 22763]
  Nonzeros           :  291753
  RHS nonzeros       :   67491

Variables            : Min LB: -5000.000        Max UB: 1000000.       
Objective nonzeros   : Min   : 0.1083333        Max   : 2500.000       
Linear constraints   :
  Nonzeros           : Min   : 0.1083333        Max   : 1000000.       
  RHS nonzeros       : Min   : 0.1083333        Max   : 1000000.       
CPLEX> CPXPARAM_Parallel                                -1
CPXPARAM_Simplex_Tolerances_Feasibility          0.001
CPXPARAM_DetTimeLimit                            75000
CPXPARAM_MIP_Tolerances_MIPGap                   0.01
CPXPARAM_MIP_Tolerances_Integrality              1.0000000000000001e-09
Warning:  No solution found from 1 MIP starts.
Retaining values of one MIP start for possible repair.
Tried aggregator 3 times.
MIP Presolve eliminated 88621 rows and 19665 columns.
MIP Presolve added 3379 rows and 0 columns.
MIP Presolve modified 24872 coefficients.
Aggregator did 12989 substitutions.
Reduced MIP has 24974 rows, 21315 columns, and 71218 nonzeros.
Reduced MIP has 8427 binaries, 0 generals, 0 SOSs, and 0 indicators.
Presolve time = 0.27 sec. (172.78 ticks)
Probing fixed 395 vars, tightened 2820 bounds.
Probing time = 1.19 sec. (876.94 ticks)
Tried aggregator 2 times.
MIP Presolve eliminated 897 rows and 797 columns.
MIP Presolve modified 2213 coefficients.
Aggregator did 40 substitutions.
Reduced MIP has 24037 rows, 20478 columns, and 68492 nonzeros.
Reduced MIP has 8030 binaries, 0 generals, 0 SOSs, and 0 indicators.
Presolve time = 0.09 sec. (70.66 ticks)
Probing time = 0.05 sec. (16.01 ticks)
Clique table members: 6531.
MIP emphasis: balance optimality and feasibility.
MIP search method: dynamic search.
Parallel mode: opportunistic, using up to 32 threads.
Root relaxation solution time = 0.47 sec. (555.26 ticks)

        Nodes                                         Cuts/
   Node  Left     Objective  IInf  Best Integer    Best Bound    ItCnt     Gap

      0     0     2933.5521   644                   2933.5521     6815         
*     0+    0                         2804.6491     2933.5521             4.60%
      0     0     2933.5808     2     2804.6491      Fract: 1     6817    4.60%
Repair heuristic found nothing.

Repeating presolve.
Tried aggregator 4 times.
MIP Presolve eliminated 10448 rows and 7866 columns.
MIP Presolve modified 18929 coefficients.
Aggregator did 189 substitutions.
Reduced MIP has 13400 rows, 12421 columns, and 39841 nonzeros.
Reduced MIP has 4589 binaries, 0 generals, 0 SOSs, and 0 indicators.
Presolve time = 0.11 sec. (70.70 ticks)
Probing fixed 810 vars, tightened 35644 bounds.
Probing time = 0.16 sec. (72.85 ticks)
Cover probing fixed 10 vars, tightened 1877 bounds.
Tried aggregator 4 times.
MIP Presolve eliminated 6614 rows and 6339 columns.
MIP Presolve modified 2479 coefficients.
Aggregator did 110 substitutions.
Reduced MIP has 6676 rows, 5972 columns, and 21544 nonzeros.
Reduced MIP has 2152 binaries, 0 generals, 0 SOSs, and 0 indicators.
Presolve time = 0.05 sec. (30.64 ticks)
Probing fixed 30 vars, tightened 2514 bounds.
Probing time = 0.03 sec. (12.17 ticks)
Tried aggregator 3 times.
MIP Presolve eliminated 122 rows and 116 columns.
MIP Presolve modified 1205 coefficients.
Aggregator did 6 substitutions.
Reduced MIP has 6548 rows, 5850 columns, and 21137 nonzeros.
Reduced MIP has 2104 binaries, 0 generals, 0 SOSs, and 0 indicators.
Presolve time = 0.03 sec. (21.32 ticks)
Represolve time = 0.52 sec. (311.16 ticks)
Probing fixed 7 vars, tightened 1733 bounds.
Probing time = 0.03 sec. (6.92 ticks)
Clique table members: 2828.
MIP emphasis: balance optimality and feasibility.
MIP search method: dynamic search.
Parallel mode: opportunistic, using up to 32 threads.
Root relaxation solution time = 0.11 sec. (115.40 ticks)

        Nodes                                         Cuts/
   Node  Left     Objective  IInf  Best Integer    Best Bound    ItCnt     Gap

*     0+    0                         2804.6491     2933.5521             4.60%
      0     0     2930.9938    35     2804.6491     2930.9938     8609    4.50%
      0     0     2922.1063     2     2804.6491      Cuts: 13     8627    4.19%
*     0+    0                         2909.7500     2922.1063             0.42%

Flow cuts applied:  8
Gomory fractional cuts applied:  3

Root node processing (before b&c):
  Real time             =    5.30 sec. (3513.51 ticks)
Parallel b&c, 32 threads:
  Real time             =    0.00 sec. (0.00 ticks)
  Sync time (average)   =    0.00 sec.
  Wait time (average)   =    0.00 sec.
                          ------------
Total (root+branch&cut) =    5.30 sec. (3513.51 ticks)

Solution pool: 2 solutions saved.

MIP - Integer optimal, tolerance (0.01/1e-06):  Objective =  2.9097500246e+03
Current MIP best bound =  2.9221063467e+03 (gap = 12.3563, 0.42%)
Solution time =    5.33 sec.  Iterations = 8627  Nodes = 0 (1)
Deterministic time = 3513.67 ticks  (659.47 ticks/sec)

CPLEX> Incumbent solution written to file 'C:\Users\llavin\Desktop\test826\logs\tmps19geli7.cplex.sol'.
CPLEX> Exporting results... 
